Wagon load balancing problem/problem1.lp
\ Model problem1
\ LP format - for model browsing. Use MPS format to capture full model detail.
Minimize
  Z
Subject To
 R0: x_11 + x_12 + x_13 = 1
 R1: x_21 + x_22 + x_23 = 1
 R2: x_31 + x_32 + x_33 = 1
 R3: x_41 + x_42 + x_43 = 1
 R4: x_51 + x_52 + x_53 = 1
 R5: x_61 + x_62 + x_63 = 1
 R6: x_71 + x_72 + x_73 = 1
 R7: x_81 + x_82 + x_83 = 1
 R8: x_91 + x_92 + x_93 = 1
 R9: x_101 + x_102 + x_103 = 1
 R10: x_111 + x_112 + x_113 = 1
 R11: x_121 + x_122 + x_123 = 1
 R12: x_131 + x_132 + x_133 = 1
 R13: x_141 + x_142 + x_143 = 1
 R14: x_151 + x_152 + x_153 = 1
 R15: x_161 + x_162 + x_163 = 1
 R16: - Z + 34 x_11 + 6 x_21 + 8 x_31 + 17 x_41 + 16 x_51 + 5 x_61
   + 13 x_71 + 21 x_81 + 25 x_91 + 31 x_101 + 14 x_111 + 13 x_121
   + 33 x_131 + 9 x_141 + 25 x_151 + 25 x_161 <= 0
 R17: - Z + 34 x_12 + 6 x_22 + 8 x_32 + 17 x_42 + 16 x_52 + 5 x_62
   + 13 x_72 + 21 x_82 + 25 x_92 + 31 x_102 + 14 x_112 + 13 x_122
   + 33 x_132 + 9 x_142 + 25 x_152 + 25 x_162 <= 0
 R18: - Z + 34 x_13 + 6 x_23 + 8 x_33 + 17 x_43 + 16 x_53 + 5 x_63
   + 13 x_73 + 21 x_83 + 25 x_93 + 31 x_103 + 14 x_113 + 13 x_123
   + 33 x_133 + 9 x_143 + 25 x_153 + 25 x_163 <= 0
Bounds
 Z <= 100
Binaries
 x_11 x_12 x_13 x_21 x_22 x_23 x_31 x_32 x_33 x_41 x_42 x_43 x_51 x_52 x_53
 x_61 x_62 x_63 x_71 x_72 x_73 x_81 x_82 x_83 x_91 x_92 x_93 x_101 x_102
 x_103 x_111 x_112 x_113 x_121 x_122 x_123 x_131 x_132 x_133 x_141 x_142
 x_143 x_151 x_152 x_153 x_161 x_162 x_163
Generals
 Z
End
