Wagon load balancing problem/problem1.sol
# Solution for model problem1
# Objective value = 99
Z 99
x_11 1
x_12 0
x_13 0
x_21 0
x_22 0
x_23 1
x_31 0
x_32 0
x_33 1
x_41 1
x_42 0
x_43 0
x_51 1
x_52 0
x_53 0
x_61 0
x_62 1
x_63 0
x_71 0
x_72 1
x_73 0
x_81 1
x_82 0
x_83 0
x_91 0
x_92 1
x_93 0
x_101 0
x_102 1
x_103 0
x_111 0
x_112 0
x_113 1
x_121 0
x_122 0
x_123 1
x_131 0
x_132 0
x_133 1
x_141 1
x_142 0
x_143 0
x_151 0
x_152 1
x_153 0
x_161 0
x_162 0
x_163 1
